(declare-const a Real)
(declare-const b Real)
(declare-const c Real)
(assert (= (* a b c) 1))
(assert (> a 0))
(assert (> b 0))
(assert (> c 0))
(assert (not (<= (+ (* -355224 (pow b 4)) (* -278040 (pow a 4)) (* (pow (+ 104058 (* 17343 (pow a 4)) (* 17343 (pow b 2))) -1) (pow (+ (* 17343 (pow a 4)) (* 17343 (pow b 3)) (* 104058 a b)) 2)) (* -663552 (pow a (pow 3 -1)) (pow b (/ 11 3))) (* -331776 (pow a (/ 10 3)) (pow b (/ 2 3))) (* 335964 b (pow a 3)) (* 1153884 a (pow b 3))) 0)))
(check-sat)
(get-model)
(exit)